NAME : u159.102727.tour
COMMENT : Cost = 13244_102727
COMMENT : Found by LKH [Keld Helsgaun] Thu Nov 16 17:54:54 2017
TYPE : TOUR
DIMENSION : 168
TOUR_SECTION
1
3
160
93
95
96
87
88
94
92
118
117
116
115
114
124
166
157
155
150
137
37
36
56
33
34
35
138
140
139
141
145
149
151
154
156
164
131
42
43
45
50
74
64
65
66
67
68
69
70
71
72
73
76
75
48
47
123
128
127
167
60
132
162
158
136
38
55
57
58
59
40
39
135
163
133
134
41
52
53
54
63
61
62
51
49
46
44
165
126
129
130
122
121
120
119
91
90
89
77
78
79
80
81
82
83
84
85
86
97
98
99
100
101
102
103
104
105
106
107
108
109
110
111
112
113
125
161
2
4
5
153
152
7
148
147
146
144
143
142
32
31
30
29
28
27
26
25
24
23
22
21
20
19
18
17
16
15
14
13
12
11
10
9
8
6
168
159
-1
EOF
